p cnf 26 27
-1 26 0 
-2 26 0 
-3 26 0 
-4 26 0 
-5 26 0 
-6 26 0 
-7 26 0 
-8 26 0 
-9 26 0 
-10 26 0 
-11 26 0 
-12 26 0 
-13 18 20 21 26 0 
-14 23 -15 26 0 
-16 -17 19 26 0 
-18 13 20 21 -19 17 26 0 
-20 13 18 21 -19 17 26 0 
-16 -20 13 18 21 26 0 
-14 23 -18 13 20 21 26 0 
-6 -20 13 18 21 26 0 
-21 13 18 20 -22 26 0 
-14 23 26 0 
-16 26 0 
-23 14 26 0 
-21 13 18 20 26 0 
-24 26 0 
-25 26 0 
